% seed = 0

mint = 41;
% maxt = 150;

nActs = 62;
dur = [0,3,2,1,2,2,1,1,4,3,1,1,2,6,2,6,1,3,3,2,1,3,2,3,4,2,2,2,3,1,2,2,4,2,3,2,4,1,2,4,1,3,1,3,3,1,4,4,3,5,2,4,3,2,2,3,1,4,2,3,1,0];

nSkills = 9;
sreq = [| 0,0,0,0,0,0,0,0,0,
	| 0,0,0,0,0,1,0,0,0,
	| 0,0,1,0,0,0,0,0,0,
	| 0,0,2,0,0,0,0,0,0,
	| 0,0,1,0,0,1,0,0,0,
	| 0,0,1,0,0,0,0,0,0,
	| 0,1,1,0,0,0,0,0,0,
	| 0,0,0,0,0,0,0,1,0,
	| 0,0,1,0,0,0,0,0,0,
	| 1,0,1,0,0,0,0,0,0,
	| 0,1,0,0,1,0,0,0,0,
	| 1,0,0,0,0,0,0,0,0,
	| 0,0,0,0,0,1,0,0,0,
	| 0,0,1,0,0,0,0,0,0,
	| 0,0,0,0,0,1,0,1,0,
	| 0,0,0,0,1,0,0,1,0,
	| 0,0,1,0,0,0,0,1,0,
	| 0,1,1,0,0,0,0,0,0,
	| 1,0,0,0,1,0,0,0,1,
	| 0,0,2,0,0,0,0,0,0,
	| 0,0,0,0,0,1,1,0,0,
	| 1,0,0,0,0,0,1,0,0,
	| 0,0,0,0,0,1,0,1,0,
	| 0,0,1,0,0,0,0,0,0,
	| 0,0,1,0,0,0,0,0,0,
	| 0,0,1,0,0,0,0,0,0,
	| 0,1,1,0,0,0,0,0,0,
	| 0,0,1,0,0,0,0,1,0,
	| 0,0,0,0,0,0,0,1,0,
	| 0,0,0,0,1,0,0,1,0,
	| 0,1,1,0,0,0,0,0,0,
	| 0,0,0,0,0,1,1,0,0,
	| 0,0,0,1,0,0,0,0,0,
	| 0,1,0,0,0,0,0,0,0,
	| 0,0,1,0,0,0,1,0,0,
	| 0,0,1,0,0,0,0,1,0,
	| 0,1,1,0,0,0,0,0,0,
	| 0,0,1,0,0,0,0,0,0,
	| 0,0,1,0,0,1,0,0,0,
	| 0,0,1,0,0,1,0,0,0,
	| 0,0,0,1,0,0,1,0,0,
	| 0,0,1,0,0,0,0,0,0,
	| 0,0,0,1,0,0,1,0,0,
	| 0,0,1,0,0,1,0,0,0,
	| 0,0,1,0,0,0,0,0,0,
	| 0,0,0,0,1,0,0,1,0,
	| 0,1,1,0,0,0,0,0,0,
	| 0,0,0,1,1,0,0,0,0,
	| 0,0,1,0,1,0,0,0,0,
	| 0,0,0,0,0,0,0,1,0,
	| 0,0,0,0,0,0,0,2,0,
	| 0,0,2,0,0,0,0,0,0,
	| 0,0,1,0,0,1,0,0,0,
	| 0,0,1,0,0,0,0,0,0,
	| 0,0,1,0,0,0,0,0,0,
	| 0,0,0,1,0,0,0,0,0,
	| 0,1,1,0,0,0,0,0,0,
	| 0,0,0,0,0,1,0,1,0,
	| 0,0,0,0,0,1,0,0,0,
	| 0,0,0,0,0,0,1,0,0,
	| 0,0,0,0,0,0,0,1,0,
	| 0,0,0,0,0,0,0,0,0, |];

% SumOfsreq = 97;

nResources = 6;
mastery = [| true,true,true,false,false,false,false,true,true,
	| false,false,false,true,true,true,false,false,false,
	| false,false,false,false,false,false,true,true,true,
	| false,false,true,true,true,true,false,true,true,
	| false,false,true,false,false,false,false,false,false,
	| false,false,false,false,false,false,true,true,true, |];

nPrecs = 93;
pred = [1,1,1,2,2,2,3,3,3,4,4,4,5,5,5,6,7,7,8,8,9,9,10,10,10,11,11,12,13,14,15,15,15,16,16,16,17,18,19,19,20,21,22,23,23,24,25,26,26,27,28,29,30,31,31,32,32,32,33,33,34,35,36,37,38,38,39,40,41,42,43,44,45,46,47,48,48,49,50,51,51,52,53,54,54,55,55,56,57,58,59,60,61];
succ = [2,3,4,18,11,40,5,6,7,9,51,36,10,22,8,12,19,39,21,24,50,13,14,15,16,17,20,30,54,23,41,29,47,27,23,32,46,31,25,26,47,49,28,52,44,60,42,35,56,49,45,42,41,43,46,33,34,45,37,38,61,42,53,43,51,55,59,58,55,44,49,57,48,47,48,51,55,52,57,58,54,53,54,60,56,57,56,59,58,61,62,62,62];

nUnrels = 1209;
unpred = [2,2,2,2,2,2,2,2,2,2,2,2,2,2,2,2,2,2,2,2,2,2,2,2,2,2,2,2,2,2,2,2,2,2,2,2,2,3,3,3,3,3,3,3,3,3,3,3,3,4,4,4,4,4,4,4,4,4,4,4,4,4,4,4,4,4,4,4,4,4,4,4,4,4,4,4,4,4,4,4,4,4,4,4,4,4,4,4,4,4,4,4,4,5,5,5,5,5,5,5,5,5,5,5,5,5,5,5,5,5,5,5,5,6,6,6,6,6,6,6,6,6,6,6,6,6,6,6,6,6,6,6,6,6,6,6,6,6,6,6,6,6,6,6,6,6,6,6,6,6,6,6,6,6,6,6,6,6,6,7,7,7,7,7,7,7,7,7,7,7,7,7,7,7,7,7,7,7,7,7,7,7,7,7,7,7,7,7,7,7,7,7,7,7,7,7,7,7,7,7,7,8,8,8,8,8,8,8,8,8,8,8,8,8,8,8,8,8,8,8,8,8,8,8,8,8,8,8,8,8,8,8,8,8,8,8,8,8,8,8,8,8,8,8,8,9,9,9,9,9,9,9,9,9,9,9,9,9,9,9,9,9,9,9,9,9,9,9,9,9,9,9,9,9,9,9,9,9,9,9,9,9,9,9,9,9,9,9,10,10,10,10,10,10,10,10,10,10,10,10,10,10,10,10,10,10,10,10,10,11,11,11,11,11,11,11,11,11,11,11,11,11,11,11,11,11,11,11,11,11,11,11,11,11,11,11,11,11,11,11,11,11,11,11,11,12,12,12,12,12,12,12,12,12,12,12,12,12,12,12,12,12,12,12,12,12,12,12,12,12,12,12,12,12,12,12,12,12,12,12,12,12,12,12,12,12,13,13,13,13,13,13,13,13,13,13,13,13,13,13,13,13,13,13,13,13,13,13,13,13,13,13,13,13,13,13,13,13,13,13,13,13,13,13,13,13,13,13,13,13,14,14,14,14,14,14,14,14,14,14,14,14,14,14,14,14,14,14,14,14,14,14,14,14,14,14,14,14,14,14,14,14,14,14,14,14,15,15,15,15,15,15,15,15,15,15,15,15,15,15,15,15,15,15,15,15,15,15,15,15,15,15,15,15,15,15,15,16,16,16,16,16,16,16,16,16,16,16,16,16,16,16,16,16,16,16,16,16,16,17,17,17,17,17,17,17,17,17,17,17,17,17,17,17,17,17,17,17,17,17,17,17,17,17,17,17,17,17,17,17,17,18,18,18,18,18,18,18,18,18,18,18,18,18,18,18,18,18,18,18,18,18,18,18,18,18,18,19,19,19,19,19,19,19,19,19,19,19,19,19,19,19,19,19,19,19,19,19,19,19,19,19,19,19,19,19,19,19,19,20,20,20,20,20,20,20,20,20,20,20,20,20,20,20,20,20,20,20,20,20,20,20,20,20,20,20,20,20,20,21,21,21,21,21,21,21,21,21,21,21,21,21,21,21,21,21,21,21,21,21,21,21,21,21,21,21,21,21,21,21,21,21,22,22,22,22,22,22,22,22,22,22,22,22,22,22,22,22,22,22,22,22,22,22,22,22,22,22,22,23,23,23,23,23,23,23,23,23,23,23,23,23,23,23,23,23,23,23,23,23,23,23,23,23,23,23,23,24,24,24,24,24,24,24,24,24,24,24,24,24,24,24,24,24,24,24,24,24,24,24,24,24,24,24,24,24,24,24,24,24,24,24,24,25,25,25,25,25,25,25,25,25,25,25,25,25,25,25,25,25,25,25,25,25,25,25,25,25,25,25,25,25,25,25,26,26,26,26,26,26,26,26,26,26,26,26,26,26,26,26,26,26,26,26,26,26,26,26,26,26,26,27,27,27,27,27,27,27,27,27,27,27,27,27,27,27,27,27,27,27,27,27,27,27,27,27,27,27,28,28,28,28,28,28,28,28,28,28,28,28,28,28,28,28,28,28,28,28,28,28,29,29,29,29,29,29,29,29,29,29,29,29,29,29,29,29,29,29,29,29,29,29,29,29,29,29,29,30,30,30,30,30,30,30,30,30,30,30,30,30,30,30,30,30,30,30,30,30,30,30,30,31,31,31,31,31,31,31,31,31,31,31,31,31,31,32,32,32,32,32,32,32,32,32,32,33,33,33,33,33,33,33,33,33,33,33,33,33,34,34,34,34,34,34,34,34,34,34,34,34,34,34,34,34,34,34,34,34,34,34,34,34,34,34,35,35,35,35,35,35,35,35,35,35,35,35,35,35,35,35,35,35,35,35,35,36,36,36,36,36,36,36,36,36,36,36,36,36,36,36,36,36,36,36,36,37,37,37,37,37,37,37,37,37,37,37,37,37,37,37,37,38,38,38,38,38,38,38,38,38,38,38,38,38,38,39,39,39,39,39,39,39,39,39,39,39,39,39,39,39,39,39,39,39,39,39,40,40,40,40,40,40,40,40,40,40,40,40,40,40,40,40,40,40,40,41,41,41,41,41,41,41,41,41,41,41,41,41,41,42,42,42,42,42,42,42,42,42,42,42,42,42,42,42,43,43,43,43,43,43,43,43,43,43,43,44,44,44,44,44,44,44,44,44,44,44,44,44,44,45,45,45,45,45,45,46,46,46,46,47,47,47,47,48,48,48,48,49,49,49,49,49,49,50,50,50,50,50,50,50,50,51,51,51,51,52,52,52,52,53,53,53,53,54,54,54,54,55,56,56,56,56,57,57,58,58,59,59,60];
unsucc = [3,4,5,6,7,8,9,10,12,13,14,15,16,19,21,22,23,24,25,26,27,28,29,30,32,33,34,35,36,37,38,39,41,42,44,45,50,4,9,11,13,17,18,20,31,36,40,46,50,5,6,7,8,10,11,12,14,15,16,17,18,19,20,21,22,23,24,25,26,27,28,29,30,31,32,33,34,35,37,38,39,40,41,42,43,44,45,46,47,48,49,52,55,6,7,9,11,12,13,17,18,19,20,25,26,30,31,35,36,39,40,46,50,7,8,9,10,11,13,14,15,16,17,18,19,20,21,22,23,24,25,26,27,28,29,31,32,33,34,35,36,37,38,39,40,42,43,44,45,46,47,48,49,50,51,52,53,54,60,8,9,10,11,12,13,14,15,16,17,18,20,21,22,23,24,27,28,29,30,31,32,33,34,36,37,38,40,41,43,45,46,47,48,49,50,51,52,53,54,55,60,9,10,11,12,13,14,15,16,17,18,19,20,22,23,25,26,27,28,29,30,31,32,33,34,35,36,37,38,39,40,41,42,43,44,45,46,47,48,50,51,55,57,58,61,10,11,12,14,15,16,17,18,19,20,21,22,23,24,25,26,27,28,29,30,31,32,33,34,35,36,37,38,39,40,41,42,43,44,45,46,47,48,49,51,52,53,55,11,12,13,17,18,19,20,21,22,24,25,26,28,30,31,35,36,39,40,46,50,12,13,14,15,16,18,19,21,22,23,24,25,26,27,28,29,30,31,32,33,34,35,36,37,38,39,40,41,42,43,44,45,49,50,52,53,13,14,15,16,17,18,19,20,21,22,23,24,25,26,27,28,29,31,32,33,34,35,36,37,38,39,40,42,43,44,45,46,47,48,49,50,51,52,53,54,60,14,15,16,17,18,19,20,21,22,23,24,25,26,27,28,29,30,31,32,33,34,35,36,37,38,39,40,41,42,43,44,45,46,47,48,49,50,51,52,53,55,57,58,61,15,16,17,18,19,20,21,22,24,25,26,27,28,29,30,31,32,33,34,35,36,37,38,39,40,41,42,43,45,46,47,48,49,50,51,55,16,17,18,19,20,21,22,23,24,25,26,27,28,30,31,32,33,34,35,36,37,38,39,40,43,45,46,49,50,52,53,17,18,19,20,21,22,24,25,26,28,29,30,31,35,36,39,40,41,42,46,47,50,18,19,20,21,22,23,24,25,26,27,28,29,30,31,32,33,34,35,36,37,38,39,40,41,42,43,44,45,49,50,52,53,19,20,21,22,23,24,25,26,27,28,29,30,32,33,34,35,36,37,38,39,40,41,42,44,45,50,20,21,22,23,24,27,28,29,30,31,32,33,34,36,37,38,39,40,41,43,45,46,47,48,49,50,51,52,53,54,55,60,21,22,23,24,25,26,27,28,29,30,31,32,33,34,35,36,37,38,39,40,41,42,43,44,45,46,49,50,52,53,22,23,24,25,26,27,28,29,30,31,32,33,34,35,36,37,38,39,40,41,42,43,44,45,46,47,48,50,51,55,57,58,61,23,24,25,26,27,29,30,31,32,33,34,35,36,37,38,39,40,41,42,43,44,46,47,49,50,52,53,24,25,26,27,28,29,30,31,32,33,34,35,36,37,38,39,40,41,42,43,45,46,47,48,49,50,51,55,25,26,27,28,29,30,31,32,33,34,35,36,37,38,39,40,41,42,43,44,45,46,47,48,49,50,51,52,53,54,55,56,57,58,59,61,26,27,28,29,30,31,32,33,34,35,36,37,38,39,40,41,43,45,46,47,48,49,50,51,52,53,54,55,56,59,60,27,28,29,30,31,32,33,34,36,37,38,39,40,41,43,45,46,47,48,49,50,51,52,53,54,55,60,28,29,30,31,32,33,34,35,36,37,38,39,40,41,42,43,44,45,46,47,48,50,51,55,57,58,61,29,30,31,32,33,34,35,36,37,38,39,40,41,42,43,44,46,47,49,50,52,53,30,31,32,33,34,35,36,37,38,39,40,41,43,45,46,47,48,49,50,51,52,53,54,55,56,59,60,31,32,33,34,35,36,37,38,39,40,42,43,44,45,46,47,48,49,50,51,52,53,54,60,32,33,34,35,36,37,38,39,40,41,42,44,45,50,35,36,39,40,41,42,44,46,47,50,34,35,36,39,40,41,42,44,45,46,47,48,50,35,36,37,38,39,40,41,42,43,44,45,46,47,48,49,50,51,52,53,54,55,56,57,58,59,60,36,37,38,39,40,41,43,45,46,47,48,49,50,51,52,53,54,55,56,59,60,37,38,39,40,41,42,43,44,45,46,47,48,49,50,51,52,55,57,58,61,38,39,40,41,42,44,45,46,47,48,50,51,55,57,58,61,39,40,41,42,43,44,45,46,47,48,49,50,52,53,40,41,42,43,44,45,46,47,48,49,50,51,52,53,54,55,56,57,58,60,61,41,42,43,44,45,46,47,48,49,50,51,52,53,54,55,56,57,59,60,42,43,44,45,46,47,48,49,50,51,52,53,54,60,43,45,46,47,48,49,50,51,52,53,54,55,56,59,60,44,45,46,47,48,50,51,55,57,58,61,45,46,47,48,49,50,51,52,53,54,55,56,59,60,46,47,49,50,52,53,49,50,52,53,49,50,52,53,49,50,52,53,50,51,55,57,58,61,51,52,53,54,55,56,59,60,52,53,55,57,55,57,58,61,55,57,58,61,55,57,58,61,60,57,58,60,61,59,60,59,60,60,61,61];

USEFUL_RES = [{},
	{2,4},
	{1,4,5},
	{1,4,5},
	{1,2,4,5},
	{1,4,5},
	{1,4,5},
	{1,3,4,6},
	{1,4,5},
	{1,4,5},
	{1,2,4},
	{1},
	{2,4},
	{1,4,5},
	{1,2,3,4,6},
	{1,2,3,4,6},
	{1,3,4,5,6},
	{1,4,5},
	{1,2,3,4,6},
	{1,4,5},
	{2,3,4,6},
	{1,3,6},
	{1,2,3,4,6},
	{1,4,5},
	{1,4,5},
	{1,4,5},
	{1,4,5},
	{1,3,4,5,6},
	{1,3,4,6},
	{1,2,3,4,6},
	{1,4,5},
	{2,3,4,6},
	{2,4},
	{1},
	{1,3,4,5,6},
	{1,3,4,5,6},
	{1,4,5},
	{1,4,5},
	{1,2,4,5},
	{1,2,4,5},
	{2,3,4,6},
	{1,4,5},
	{2,3,4,6},
	{1,2,4,5},
	{1,4,5},
	{1,2,3,4,6},
	{1,4,5},
	{2,4},
	{1,2,4,5},
	{1,3,4,6},
	{1,3,4,6},
	{1,4,5},
	{1,2,4,5},
	{1,4,5},
	{1,4,5},
	{2,4},
	{1,4,5},
	{1,2,3,4,6},
	{2,4},
	{3,6},
	{1,3,4,6},
	{}];

POTENTIAL_ACT = [{3,4,5,6,7,8,9,10,11,12,14,15,16,17,18,19,20,22,23,24,25,26,27,28,29,30,31,34,35,36,37,38,39,40,42,44,45,46,47,49,50,51,52,53,54,55,57,58,61},
	{2,5,11,13,15,16,19,21,23,30,32,33,39,40,41,43,44,46,48,49,53,56,58,59},
	{8,15,16,17,19,21,22,23,28,29,30,32,35,36,41,43,46,50,51,58,60,61},
	{2,3,4,5,6,7,8,9,10,11,13,14,15,16,17,18,19,20,21,23,24,25,26,27,28,29,30,31,32,33,35,36,37,38,39,40,41,42,43,44,45,46,47,48,49,50,51,52,53,54,55,56,57,58,59,61},
	{3,4,5,6,7,9,10,14,17,18,20,24,25,26,27,28,31,35,36,37,38,39,40,42,44,45,47,49,52,53,54,55,57},
	{8,15,16,17,19,21,22,23,28,29,30,32,35,36,41,43,46,50,51,58,60,61}];
